language ESSENCE' 1.0
letting initGrid be [
[2, 4, 2, 4, 1, 1], 
[2, 3, 3, 4, 1, 3], 
[1, 2, 3, 3, 3, 3], 
[4, 3, 4, 1, 3, 1], 
[4, 3, 4, 2, 1, 4], 
[3, 1, 2, 1, 2, 2]
]
letting goalBlocksRemaining be 4
letting noSteps be 31
